INPUT_PARAMETERS
calculation			       scf
basis_type 			       lcao
ecutwfc    			       100
scf_thr        			   1e-7
scf_nmax      			   100
gamma_only 			       0
kspacing                   0.1
smearing_method   		   gauss
smearing_sigma             0.003
mixing_type			       pulay
mixing_beta                0.6
dft_functional             PBESOL
cal_force                  1
cal_stress                 1

ks_solver cusolver
