ATOMIC_SPECIES
Ba 137.327 Ba_ONCV_PBE-1.0.upf
Ti 47.867 Ti_ONCV_PBE-1.0.upf
O 15.999 O_ONCV_PBE-1.0.upf

NUMERICAL_ORBITAL
Ba_gga_10au_100Ry_4s2p2d1f.orb
Ti_gga_10au_100Ry_4s2p2d1f.orb
O_gga_10au_100Ry_2s2p1d.orb

LATTICE_CONSTANT
1.889716

LATTICE_VECTORS
   15.99121    -0.00044    -0.00044
    0.04123    15.99115    -0.00043
    0.04123     0.04112    15.99110

ATOMIC_POSITIONS
Cartesian

Ba
0.0
64
  0.0007663   0.0007643   0.0007623 1 1 1
  0.0110735   0.0110433   3.9985382 1 1 1
  0.0213807   0.0213222   7.9963140 1 1 1
  0.0316878   0.0316012  11.9940898 1 1 1
  0.0110735   3.9985529   0.0006540 1 1 1
  0.0213806   4.0088319   3.9984298 1 1 1
  0.0316878   4.0191108   7.9962057 1 1 1
  0.0419950   4.0293898  11.9939815 1 1 1
  0.0213806   7.9963415   0.0005457 1 1 1
  0.0316878   8.0066204   3.9983215 1 1 1
  0.0419950   8.0168994   7.9960973 1 1 1
  0.0523021   8.0271784  11.9938732 1 1 1
  0.0316877  11.9941301   0.0004374 1 1 1
  0.0419949  12.0044090   3.9982132 1 1 1
  0.0523021  12.0146880   7.9959890 1 1 1
  0.0626093  12.0249670  11.9937649 1 1 1
  3.9985691   0.0006543   0.0006526 1 1 1
  4.0088762   0.0109332   3.9984284 1 1 1
  4.0191834   0.0212122   7.9962043 1 1 1
  4.0294906   0.0314911  11.9939801 1 1 1
  4.0088762   3.9984428   0.0005443 1 1 1
  4.0191834   4.0087218   3.9983201 1 1 1
  4.0294906   4.0190008   7.9960959 1 1 1
  4.0397977   4.0292797  11.9938718 1 1 1
  4.0191833   7.9962314   0.0004359 1 1 1
  4.0294905   8.0065104   3.9982118 1 1 1
  4.0397977   8.0167893   7.9959876 1 1 1
  4.0501049   8.0270683  11.9937634 1 1 1
  4.0294905  11.9940200   0.0003276 1 1 1
  4.0397977  12.0042990   3.9981034 1 1 1
  4.0501048  12.0145779   7.9958793 1 1 1
  4.0604120  12.0248569  11.9936551 1 1 1
  7.9963718   0.0005442   0.0005428 1 1 1
  8.0066790   0.0108231   3.9983187 1 1 1
  8.0169861   0.0211021   7.9960945 1 1 1
  8.0272933   0.0313811  11.9938703 1 1 1
  8.0066789   3.9983328   0.0004345 1 1 1
  8.0169861   4.0086117   3.9982104 1 1 1
  8.0272933   4.0188907   7.9959862 1 1 1
  8.0376005   4.0291697  11.9937620 1 1 1
  8.0169861   7.9961214   0.0003262 1 1 1
  8.0272933   8.0064003   3.9981020 1 1 1
  8.0376004   8.0166793   7.9958779 1 1 1
  8.0479076   8.0269582  11.9936537 1 1 1
  8.0272932  11.9939099   0.0002179 1 1 1
  8.0376004  12.0041889   3.9979937 1 1 1
  8.0479076  12.0144679   7.9957695 1 1 1
  8.0582148  12.0247468  11.9935454 1 1 1
 11.9941745   0.0004341   0.0004331 1 1 1
 12.0044817   0.0107131   3.9982089 1 1 1
 12.0147889   0.0209920   7.9959848 1 1 1
 12.0250961   0.0312710  11.9937606 1 1 1
 12.0044817   3.9982227   0.0003248 1 1 1
 12.0147888   4.0085017   3.9981006 1 1 1
 12.0250960   4.0187806   7.9958764 1 1 1
 12.0354032   4.0290596  11.9936523 1 1 1
 12.0147888   7.9960113   0.0002165 1 1 1
 12.0250960   8.0062902   3.9979923 1 1 1
 12.0354032   8.0165692   7.9957681 1 1 1
 12.0457103   8.0268482  11.9935439 1 1 1
 12.0250960  11.9937999   0.0001081 1 1 1
 12.0354031  12.0040788   3.9978840 1 1 1
 12.0457103  12.0143578   7.9956598 1 1 1
 12.0560175  12.0246368  11.9934356 1 1 1

Ti
0.0
64
  2.0565206   2.0511664   2.0458449 1 1 1
  2.0668277   2.0614454   6.0436208 1 1 1
  2.0771349   2.0717244  10.0413966 1 1 1
  2.0874421   2.0820033  14.0391724 1 1 1
  2.0668277   6.0489550   2.0457366 1 1 1
  2.0771349   6.0592340   6.0435124 1 1 1
  2.0874421   6.0695129  10.0412883 1 1 1
  2.0977492   6.0797919  14.0390641 1 1 1
  2.0771348  10.0467436   2.0456283 1 1 1
  2.0874420  10.0570226   6.0434041 1 1 1
  2.0977492  10.0673015  10.0411799 1 1 1
  2.1080564  10.0775805  14.0389558 1 1 1
  2.0874420  14.0445322   2.0455200 1 1 1
  2.0977492  14.0548111   6.0432958 1 1 1
  2.1080563  14.0650901  10.0410716 1 1 1
  2.1183635  14.0753691  14.0388474 1 1 1
  6.0543233   2.0510564   2.0457352 1 1 1
  6.0646305   2.0613353   6.0435110 1 1 1
  6.0749377   2.0716143  10.0412868 1 1 1
  6.0852448   2.0818933  14.0390627 1 1 1
  6.0646304   6.0488449   2.0456269 1 1 1
  6.0749376   6.0591239   6.0434027 1 1 1
  6.0852448   6.0694029  10.0411785 1 1 1
  6.0955520   6.0796818  14.0389544 1 1 1
  6.0749376  10.0466335   2.0455185 1 1 1
  6.0852448  10.0569125   6.0432944 1 1 1
  6.0955519  10.0671915  10.0410702 1 1 1
  6.1058591  10.0774704  14.0388460 1 1 1
  6.0852447  14.0444221   2.0454102 1 1 1
  6.0955519  14.0547011   6.0431860 1 1 1
  6.1058591  14.0649800  10.0409619 1 1 1
  6.1161663  14.0752590  14.0387377 1 1 1
 10.0521260   2.0509463   2.0456254 1 1 1
 10.0624332   2.0612253   6.0434013 1 1 1
 10.0727404   2.0715042  10.0411771 1 1 1
 10.0830476   2.0817832  14.0389529 1 1 1
 10.0624332   6.0487349   2.0455171 1 1 1
 10.0727404   6.0590138   6.0432929 1 1 1
 10.0830475   6.0692928  10.0410688 1 1 1
 10.0933547   6.0795718  14.0388446 1 1 1
 10.0727403  10.0465235   2.0454088 1 1 1
 10.0830475  10.0568024   6.0431846 1 1 1
 10.0933547  10.0670814  10.0409605 1 1 1
 10.1036619  10.0773604  14.0387363 1 1 1
 10.0830475  14.0443120   2.0453005 1 1 1
 10.0933546  14.0545910   6.0430763 1 1 1
 10.1036618  14.0648700  10.0408521 1 1 1
 10.1139690  14.0751489  14.0386280 1 1 1
 14.0499288   2.0508362   2.0455157 1 1 1
 14.0602360   2.0611152   6.0432915 1 1 1
 14.0705431   2.0713942  10.0410674 1 1 1
 14.0808503   2.0816731  14.0388432 1 1 1
 14.0602359   6.0486248   2.0454074 1 1 1
 14.0705431   6.0589038   6.0431832 1 1 1
 14.0808503   6.0691827  10.0409590 1 1 1
 14.0911575   6.0794617  14.0387349 1 1 1
 14.0705431  10.0464134   2.0452990 1 1 1
 14.0808502  10.0566924   6.0430749 1 1 1
 14.0911574  10.0669713  10.0408507 1 1 1
 14.1014646  10.0772503  14.0386265 1 1 1
 14.0808502  14.0442020   2.0451907 1 1 1
 14.0911574  14.0544809   6.0429666 1 1 1
 14.1014646  14.0647599  10.0407424 1 1 1
 14.1117717  14.0750389  14.0385182 1 1 1

O
0.0
191
  3.9342327   1.9565424   1.9514656 1 1 1
  3.9445398   1.9668213   5.9492414 1 1 1
  3.9548470   1.9771003   9.9470173 1 1 1
  3.9651542   1.9873792  13.9447931 1 1 1
  3.9445398   5.9543309   1.9513573 1 1 1
  3.9548470   5.9646099   5.9491331 1 1 1
  3.9651542   5.9748889   9.9469089 1 1 1
  3.9754613   5.9851678  13.9446848 1 1 1
  3.9548470   9.9521195   1.9512490 1 1 1
  3.9651541   9.9623985   5.9490248 1 1 1
  3.9754613   9.9726774   9.9468006 1 1 1
  3.9857685   9.9829564  13.9445764 1 1 1
  3.9651541  13.9499081   1.9511406 1 1 1
  3.9754613  13.9601871   5.9489165 1 1 1
  3.9857685  13.9704660   9.9466923 1 1 1
  3.9960756  13.9807450  13.9444681 1 1 1
  7.9320354   1.9564323   1.9513559 1 1 1
  7.9423426   1.9667113   5.9491317 1 1 1
  7.9526498   1.9769902   9.9469075 1 1 1
  7.9629569   1.9872692  13.9446834 1 1 1
  7.9423425   5.9542209   1.9512475 1 1 1
  7.9526497   5.9644998   5.9490234 1 1 1
  7.9629569   5.9747788   9.9467992 1 1 1
  7.9732641   5.9850578  13.9445750 1 1 1
  7.9526497   9.9520095   1.9511392 1 1 1
  7.9629569   9.9622884   5.9489150 1 1 1
  7.9732640   9.9725674   9.9466909 1 1 1
  7.9835712   9.9828463  13.9444667 1 1 1
  7.9629568  13.9497980   1.9510309 1 1 1
  7.9732640  13.9600770   5.9488067 1 1 1
  7.9835712  13.9703560   9.9465825 1 1 1
  7.9938784  13.9806349  13.9443584 1 1 1
 11.9298381   1.9563222   1.9512461 1 1 1
 11.9401453   1.9666012   5.9490220 1 1 1
 11.9504525   1.9768802   9.9467978 1 1 1
 11.9607597   1.9871591  13.9445736 1 1 1
 11.9401453   5.9541108   1.9511378 1 1 1
 11.9504525   5.9643898   5.9489136 1 1 1
 11.9607596   5.9746687   9.9466895 1 1 1
 11.9710668   5.9849477  13.9444653 1 1 1
 11.9504524   9.9518994   1.9510295 1 1 1
 11.9607596   9.9621784   5.9488053 1 1 1
 11.9710668   9.9724573   9.9465811 1 1 1
 11.9813740   9.9827363  13.9443570 1 1 1
 11.9607596  13.9496880   1.9509211 1 1 1
 11.9710667  13.9599669   5.9486970 1 1 1
 11.9813739  13.9702459   9.9464728 1 1 1
 11.9916811  13.9805249  13.9442486 1 1 1
 15.9276409   1.9562122   1.9511364 1 1 1
 15.9379481   1.9664911   5.9489122 1 1 1
 15.9482552   1.9767701   9.9466880 1 1 1
 15.9585624   1.9870491  13.9444639 1 1 1
 15.9379480   5.9540007   1.9510281 1 1 1
 15.9482552   5.9642797   5.9488039 1 1 1
 15.9585624   5.9745587   9.9465797 1 1 1
 15.9688696   5.9848376  13.9443555 1 1 1
 15.9482552   9.9517893   1.9509197 1 1 1
 15.9585623   9.9620683   5.9486956 1 1 1
 15.9688695   9.9723473   9.9464714 1 1 1
 15.9791767   9.9826262  13.9442472 1 1 1
 15.9585623  13.9495779   1.9508114 1 1 1
 15.9688695  13.9598569   5.9485872 1 1 1
 15.9791767  13.9701358   9.9463631 1 1 1
 15.9894838  13.9804148  13.9441389 1 1 1
  1.9667880   3.9291203   1.9514659 1 1 1
  1.9770952   3.9393993   5.9492417 1 1 1
  1.9874023   3.9496783   9.9470176 1 1 1
  1.9977095   3.9599572  13.9447934 1 1 1
  1.9770951   7.9269089   1.9513576 1 1 1
  1.9874023   7.9371879   5.9491334 1 1 1
  1.9977095   7.9474669   9.9469092 1 1 1
  2.0080167   7.9577458  13.9446851 1 1 1
  1.9874023  11.9246975   1.9512493 1 1 1
  1.9977094  11.9349765   5.9490251 1 1 1
  2.0080166  11.9452554   9.9468009 1 1 1
  2.0183238  11.9555344  13.9445767 1 1 1
  1.9977094  15.9224861   1.9511409 1 1 1
  2.0080166  15.9327651   5.9489168 1 1 1
  2.0183238  15.9430440   9.9466926 1 1 1
  2.0286309  15.9533230  13.9444684 1 1 1
  5.9645907   3.9290103   1.9513562 1 1 1
  5.9748979   3.9392892   5.9491320 1 1 1
  5.9852051   3.9495682   9.9469078 1 1 1
  5.9955123   3.9598472  13.9446837 1 1 1
  5.9748979   7.9267989   1.9512478 1 1 1
  5.9852050   7.9370778   5.9490237 1 1 1
  5.9955122   7.9473568   9.9467995 1 1 1
  6.0058194   7.9576357  13.9445753 1 1 1
  5.9852050  11.9245874   1.9511395 1 1 1
  5.9955122  11.9348664   5.9489153 1 1 1
  6.0058194  11.9451454   9.9466912 1 1 1
  6.0161265  11.9554243  13.9444670 1 1 1
  5.9955121  15.9223760   1.9510312 1 1 1
  6.0058193  15.9326550   5.9488070 1 1 1
  6.0161265  15.9429340   9.9465828 1 1 1
  6.0264337  15.9532129  13.9443587 1 1 1
  9.9623935   3.9289002   1.9512464 1 1 1
  9.9727006   3.9391792   5.9490223 1 1 1
  9.9830078   3.9494581   9.9467981 1 1 1
  9.9933150   3.9597371  13.9445739 1 1 1
  9.9727006   7.9266888   1.9511381 1 1 1
  9.9830078   7.9369678   5.9489139 1 1 1
  9.9933150   7.9472467   9.9466898 1 1 1
 10.0036221   7.9575257  13.9444656 1 1 1
  9.9830077  11.9244774   1.9510298 1 1 1
  9.9933149  11.9347563   5.9488056 1 1 1
 10.0036221  11.9450353   9.9465814 1 1 1
 10.0139293  11.9553143  13.9443573 1 1 1
  9.9933149  15.9222660   1.9509214 1 1 1
 10.0036221  15.9325449   5.9486973 1 1 1
 10.0139292  15.9428239   9.9464731 1 1 1
 10.0242364  15.9531028  13.9442489 1 1 1
 13.9601962   3.9287901   1.9511367 1 1 1
 13.9705034   3.9390691   5.9489125 1 1 1
 13.9808106   3.9493481   9.9466883 1 1 1
 13.9911177   3.9596270  13.9444642 1 1 1
 13.9705033   7.9265787   1.9510284 1 1 1
 13.9808105   7.9368577   5.9488042 1 1 1
 13.9911177   7.9471367   9.9465800 1 1 1
 14.0014249   7.9574156  13.9443558 1 1 1
 13.9808105  11.9243673   1.9509200 1 1 1
 13.9911177  11.9346463   5.9486959 1 1 1
 14.0014248  11.9449252   9.9464717 1 1 1
 14.0117320  11.9552042  13.9442475 1 1 1
 13.9911176  15.9221559   1.9508117 1 1 1
 14.0014248  15.9324349   5.9485875 1 1 1
 14.0117320  15.9427138   9.9463634 1 1 1
 14.0220392  15.9529928  13.9441392 1 1 1
  1.9667880   1.9616679   3.9240367 1 1 1
  1.9770952   1.9719469   7.9218126 1 1 1
  1.9874024   1.9822259  11.9195884 1 1 1
  1.9977095   1.9925048  15.9173642 1 1 1
  1.9770951   5.9594565   3.9239284 1 1 1
  1.9874023   5.9697355   7.9217042 1 1 1
  1.9977095   5.9800145  11.9194801 1 1 1
  2.0080167   5.9902934  15.9172559 1 1 1
  1.9874023   9.9572451   3.9238201 1 1 1
  1.9977095   9.9675241   7.9215959 1 1 1
  2.0080166   9.9778030  11.9193718 1 1 1
  2.0183238   9.9880820  15.9171476 1 1 1
  1.9977094  13.9550337   3.9237118 1 1 1
  2.0080166  13.9653127   7.9214876 1 1 1
  2.0183238  13.9755916  11.9192634 1 1 1
  2.0286310  13.9858706  15.9170393 1 1 1
  5.9645907   1.9615579   3.9239270 1 1 1
  5.9748979   1.9718368   7.9217028 1 1 1
  5.9852051   1.9821158  11.9194787 1 1 1
  5.9955123   1.9923948  15.9172545 1 1 1
  5.9748979   5.9593465   3.9238187 1 1 1
  5.9852051   5.9696254   7.9215945 1 1 1
  5.9955122   5.9799044  11.9193703 1 1 1
  6.0058194   5.9901833  15.9171462 1 1 1
  5.9852050   9.9571350   3.9237103 1 1 1
  5.9955122   9.9674140   7.9214862 1 1 1
  6.0058194   9.9776930  11.9192620 1 1 1
  6.0161266   9.9879719  15.9170378 1 1 1
  5.9955122  13.9549236   3.9236020 1 1 1
  6.0058193  13.9652026   7.9213779 1 1 1
  6.0161265  13.9754816  11.9191537 1 1 1
  6.0264337  13.9857605  15.9169295 1 1 1
  9.9623935   1.9614478   3.9238173 1 1 1
  9.9727007   1.9717268   7.9215931 1 1 1
  9.9830078   1.9820057  11.9193689 1 1 1
  9.9933150   1.9922847  15.9171447 1 1 1
  9.9727006   5.9592364   3.9237089 1 1 1
  9.9830078   5.9695154   7.9214848 1 1 1
  9.9933150   5.9797943  11.9192606 1 1 1
 10.0036222   5.9900733  15.9170364 1 1 1
  9.9830078   9.9570250   3.9236006 1 1 1
  9.9933149   9.9673039   7.9213764 1 1 1
 10.0036221   9.9775829  11.9191523 1 1 1
 10.0139293   9.9878619  15.9169281 1 1 1
  9.9933149  13.9548136   3.9234923 1 1 1
 10.0036221  13.9650925   7.9212681 1 1 1
 10.0139293  13.9753715  11.9190439 1 1 1
 10.0242364  13.9856504  15.9168198 1 1 1
 13.9601962   1.9613377   3.9237075 1 1 1
 13.9705034   1.9716167   7.9214833 1 1 1
 13.9808106   1.9818957  11.9192592 1 1 1
 13.9911178   1.9921746  15.9170350 1 1 1
 13.9705034   5.9591263   3.9235992 1 1 1
 13.9911177   5.9796843  11.9191508 1 1 1
 14.0014249   5.9899632  15.9169267 1 1 1
 13.9808105   9.9569149   3.9234909 1 1 1
 13.9911177   9.9671939   7.9212667 1 1 1
 14.0014249   9.9774728  11.9190425 1 1 1
 14.0117320   9.9877518  15.9168184 1 1 1
 13.9911176  13.9547035   3.9233825 1 1 1
 14.0014248  13.9649825   7.9211584 1 1 1
 14.0117320  13.9752614  11.9189342 1 1 1
 14.0220392  13.9855404  15.9167100 1 1 1

